NAME          
ROWS
 N  OBJ
 L  c1
COLUMNS
    MARKER    'MARKER'                 'INTORG'
    x[1]      c1        731
    x[1]      OBJ       -735
    x[2]      c1        255
    x[2]      OBJ       -318
    x[3]      c1        839
    x[3]      OBJ       -905
    x[4]      c1        155
    x[4]      OBJ       -91
    x[5]      c1        290
    x[5]      OBJ       -275
    x[6]      c1        861
    x[6]      OBJ       -866
    x[7]      c1        17
    x[7]      OBJ       -95
    x[8]      c1        204
    x[8]      OBJ       -273
    x[9]      c1        21
    x[9]      OBJ       -38
    x[10]     c1        484
    x[10]     OBJ       -423
RHS
    rhs       c1        1928
RANGES
BOUNDS
 LO bounds    x[1]      0
 PL bounds    x[1]
 LO bounds    x[2]      0
 PL bounds    x[2]
 LO bounds    x[3]      0
 PL bounds    x[3]
 LO bounds    x[4]      0
 PL bounds    x[4]
 LO bounds    x[5]      0
 PL bounds    x[5]
 LO bounds    x[6]      0
 PL bounds    x[6]
 LO bounds    x[7]      0
 PL bounds    x[7]
 LO bounds    x[8]      0
 PL bounds    x[8]
 LO bounds    x[9]      0
 PL bounds    x[9]
 LO bounds    x[10]     0
 PL bounds    x[10]
ENDATA
